
 102   30
  10   10   10   10   10   10   10   10   10   10   10   10   10   10   10   10   10   10   10   10   10   10   10   10   10   10   10   10   10   10

   0   0   0   0   0   0   0   0   0   0   0   0   0   0   0   0   0   0   0   0   0   0   0   0   0   0   0   0   0   0   0  27 2 3 4 5 6 7 8 9 10 12 13 14 15 16 17 18 19 20 21 23 25 26 27 31 35 36 37 
   2   0   0   0   0   0   0   1   0   0   0   0   0   0   0   0   3   0   0   0   0   0   0   0   0   0   0   0   0   0   0  22 101 100 68 67 61 57 56 55 54 53 52 49 48 47 46 43 42 41 40 38 33 29 
  10   0   1   0   0   0   0   0   0   0   0   0   0   0   0   0   0   3   0   0   0   0   0   1   0   0   0   0   0   0   0  13 74 68 63 57 52 46 45 43 39 34 32 24 22 
   8   0   0   0   0   0   0   0   0   0   0   0   0   0   4   0   0   0   0   0   0   0   0   0   0   0   0   0   0   0   0  21 99 97 75 74 68 66 63 62 60 59 57 54 53 52 50 49 48 43 41 39 24 
   9   0   0   0   0   0   0   0   0   0   0   0   0   0   0   0   0   0   1   0   0   0   0   0   0   0   0   0   0   0   0  15 99 95 75 68 62 59 57 54 53 50 43 39 30 28 24 
  10   0   0   0   0   0   0   0   0   0   0   0   1   1   0   4   0   0   3   0   0   0   0   0   0   0   0   0   0   0   0  10 98 75 68 63 59 58 55 46 45 11 
   7   0   0   0   0   0   0   0   1   0   0   0   0   0   0   5   0   2   6   4   0   0   0   0   0   1   1   0   0   0   2  16 75 74 72 69 68 62 60 59 57 54 49 48 44 43 34 30 
   1   0   6   0   0   0   0   0   0   0   1   0   0   0   0   0   0   8   3   0   0   0   0   0   0   0   0   0   5   0   0  22 101 100 99 75 73 72 69 67 66 64 61 60 59 58 56 55 54 50 49 48 44 40 
   2   2   0   0   0   0   0   0   0   0   0   4   0   0   0   0   0   4   7   0   0   0   0   5   0   6   0   0   0   0   0  24 100 99 97 96 90 89 73 72 71 69 67 66 64 62 61 58 57 55 51 50 49 48 44 43 
   1   0   9   0   0   0   0   0   0   0   0   0   0   8   0   0   0   0   4   0   0   0   0   0   0   0   3   2   0   0   0  22 101 100 97 96 90 73 71 67 66 65 62 61 58 57 55 52 51 50 49 48 47 44 
   4   0   0   0   0   0   0   0   0   0   0   5   2   0   0   0   0   0   0   0   0   0   0   0   0   0   0   0   0   0   0  12 99 94 92 74 69 66 64 62 57 50 40 22 
   7   0   0   0   0   1   1   0   0   0   0   0   0   0   0   0   6   0   0   5   0   0   0   0   4   0   0   0   0   1   0  21 99 96 90 75 74 72 68 66 65 61 60 59 58 55 53 52 51 50 48 44 40 
   4   0   0   0   0   0   0   0   0   0   0   6   0   0   0   0   0   0   0   0   0   0   0   0   0   0   0   0   0   0   0  20 99 96 95 94 72 71 69 66 65 62 61 59 57 54 53 52 51 50 49 40 
   7   0   0   0   0   0   4   0   0   0   0   4   0   0   0   0   0   4   9   0   0   0   0   0   0   0   0   0   0   6   0  13 74 72 69 65 61 59 55 52 51 50 48 40 32 
   5   0   0   0   0   0   0   0   0   0   0   0   0   0   0   0   0   0   0   0   0   0   1   0   0   0   0   0   0   7   0  18 100 96 90 72 71 69 68 66 65 64 59 58 52 51 49 48 44 40 
   7   0   0   0   0   0   0   3   0   0   0   0   0   0   2   0   0   3   0   0   0   0   0   0   0   0   0   0   0   0   0  14 95 92 91 88 74 72 65 64 60 59 57 44 39 30 
   1   0   0   0   0   0   0   0   0   0   0   0   0   0   0   0   0   0   0   0   0   0   7   0   0   0   0   0   5   0   8  22 101 100 99 97 94 93 90 88 75 72 71 67 66 65 64 61 58 55 52 51 50 49 
   5   9   0   0   0   0   0   0   0   0   0   0   0   0   0   0   0   0   0   0   0   5   0   7   2   0   0   0   0   0   0  12 91 72 71 67 65 61 59 58 57 55 50 32 
   8   6   0   0   0   0   0  10   0   0   0  10   0   0   0   0   4   0   5   0   0   0   0   0  10   0   0   0   0   0   0  16 101 96 95 94 92 72 67 62 61 57 54 53 52 51 47 42 
   3   0   0   0   0   0   0   5   0   0   0   0   0   9   0   0   6   0   0   0   0   0   0   0   0   0   8   0   0   0   0   8 92 74 65 64 53 48 40 30 
   8   6   0   0   0   0   0   0   5   0   0   0   0   0   0   0   0   0   0   5   0   0   0   0   0   0   0   0   0   8   0  12 100 96 92 74 72 69 67 64 54 44 42 40 
   9   0   0   0   0   0   0   0   0   0   0   0   3   0   0   0   5   0   6   0   1   2   0   0   0   7   0   0   0   0   0  13 101 96 89 73 72 70 67 61 60 54 53 48 42 
   8   0   0   4   0   5   0   8   0   0   0   0   0   0   0   0   0   0   0   0   0   0   0   0   0   0   0  10   0   0   0  18 100 98 95 94 93 91 90 89 88 82 78 75 70 68 67 64 61 46 
   9   0   0   0   0   0   0   0   8   0   0   0   0   0   5   0   0   5   0   5   0   0   9   0   4   0   0   0   0   0   0  16 101 100 98 94 93 92 90 87 86 73 72 71 64 58 55 51 
   7   0   0   0   1   0   0   0   5   0   0   0   0   0   0   0   0   0   0   0   5   0   0   0   0   0   0   0   0   0   0  14 100 97 93 91 90 89 82 77 69 68 64 61 55 48 
   1   0   0   0   0   0   6   0   0   0   0   0   0   0   0   0   0   0   0   0   0   0   0   4   0   0   0   4   7   0   0  17 97 96 95 93 91 90 89 88 85 80 79 70 66 65 62 57 50 
   2   0   0   0   0   0   0   0   0   1   0   0   0   0   0  10   9   0   5   6   0   4   0   0   0   8   0   0   0   7   0  11 98 95 94 88 73 70 67 59 58 57 40 
  10  10   0   0   9   0   0   0   0   0   0   0   0   0   0   0   0   0   8   5   0   0   0   0   0   0   0   0   0   0   8  10 98 96 88 84 69 67 65 61 55 40 
   8   0   0   3   0   0   0   0   0   0   0   0   0   0   0   4   0   0   0   0   0   0   0   0   0   0   0   0   4   0   0  18 99 98 95 94 90 87 86 85 83 82 78 75 74 72 71 70 64 59 
   8   0   0   0   0   9   0   9   0   0   0   0   0   0   0   8   0   4   0   0   0   0   0   0   0   0   0   0   8   0   0  13 97 96 94 90 87 86 82 73 71 66 61 55 52 
   8   0   0   0   0   6   0   0   0   6   0   0   0   0   0   0   0   0   0   0   0   0   0   0   0   0   0   0   6   0   0  13 101 99 98 91 88 86 83 82 68 66 65 61 52 
   2   0   0   0   8   0   0   0   0   7   0   0   0   0   7   0   0   0   0   0   0   0   0   7   0   0   0   0   0   0   0  18 99 98 97 96 95 94 92 90 89 88 84 83 80 77 75 70 64 62 
   6   0   0   0   0   0   0   0   4   0   0   9   0   0   0   0   0   0   0   0   0   0   6   5   0   0   0   7   0   4   0  10 99 92 89 86 72 64 60 58 51 50 
   7   0   0   0   0   8   0   0   0   0   6   0   0   0   0   5   0   0   0   6   8   7   0   0   0   0   0   0   0   0   0  16 98 96 93 92 90 89 88 87 84 83 82 79 78 77 67 61 
   8   0   0   0   0   0   0   0   0   0   0   0   0   0   0   0   0   0   0   0   0   0   5   0   0   0   6   0   0   0   0  17 100 95 93 92 91 90 87 86 85 84 83 82 80 78 74 70 66 
   9   0   0   0   4   0   0   0   0   0   6   0   0   0   0   0   0   0   0   0   0   0   0   0   0   6   0   6   7   0   0  13 97 94 90 89 88 86 85 83 82 77 74 64 55 
  10   0   0   0   0   0   0   0   0   0   0   0   0   7   0   0   0  10   0   0   3   6   0  10   0   0   0   6   0   0   0   9 99 96 95 90 86 82 70 61 53 
   5   0   0   0   0   8   0   8   8   0   0   0   0   5   0   0   0   0   0   0   0   0   5   0   0   0   0   0   0   0   0  12 99 96 88 87 85 84 82 81 78 70 65 64 
   4   0   0   0   0   0   0   0   0   9   0   0   0   0   0   0   0   0   0   0   0   0   0  10   0   0   0   0   0   0   0   9 94 90 89 83 82 79 78 69 61 
   8   0   0   0   0   0   0   0   0   0   0   0   0   0   0   7   0   0   0   0   0   0   0   0   0   0   5   0   0   7   0  13 97 93 91 89 87 86 83 82 81 80 79 77 76 
   5   0   0   0   0   0   4   0   0   8   0   0   9   0   0   0   0   0   6   0   0   0   0   0   0   0   0   9   0   0   0   9 96 90 88 87 82 81 78 77 64 
   1   0   0   0   0   0   0   0   0   0   0   0   0   0   0   0   0  10   0   6   7   0   0   0   0   0   0   0   0   0  10   9 91 85 82 81 79 78 77 76 71 
   9   0   0   0   0   0   0   0   5   0   0   0   0   0   0   0   0   0   7   0   0   0   0   0   0   0   0   0   0   0   0   8 92 91 85 82 80 79 78 65 
   2   0   0   0   0   0   0   0   0   5   0   0   0   0   0   0   0   0   0   0   0   0   7   0   0   0   0   0   0   0   0   9 94 93 83 81 80 79 78 77 76 
   9   6   0   0   0   0   0   0   0   0   0   0   0   0   0   0   0   0   0   0   0   0   4   0   0   0   0   5   0   0   0   8 88 87 85 82 81 80 78 71 
  10   0   0   0   0   0   0   0   0   0   0   0   0   3   0   0   0   0   0   0   0   0   0   0   0   0   0   0   0   0   3   7 92 87 86 80 79 76 73 
   4   0   0   0   0   0   0   0   0   0   0   0   0   0   0   0   0   0   0   0   0   0   0   0   0   4   0  10   4   0   0   6 88 87 84 78 70 64 
   9   0   0   0   0   0   0   0   0   0   7   0   0   0  10   0   0   0   0   0   0   7   0   0   0   7   0   6   0   0   0   7 95 88 87 86 85 83 76 
   1   0   0   0   0   0   0   7   0   0   9   0   0   0   0   0   0   0   4   0   0   0   0   7   0   9   0   0   0   0   0   7 98 92 84 81 80 77 76 
   6   0   0  10   0   0   0   6   0   0   1   0   5   0   2   0   0   0   0   0   0   0   0   3   0   0   0   0   0   0   0   6 87 84 83 82 81 76 
   3   0   0   9   0   0   0   5   0   0   0  10   0   0   0   0   0   0   0   0   0   0   0   0   0   0   0   0   0   6   0   6 91 85 82 80 77 76 
   9   0   0   0   0   0   0   0   0   0   0   0   0   0  10   0   5   0   0   0   0   0   0   9   0   0   6   6   0   0   0   5 89 79 78 77 70 
  10   0   0   0   0   0   0   4   0   0   0   0   0   4   0   0   0   0   0   0   0   0   5   3   0   0   0   0   0   0   5   5 93 88 79 78 77 
   1   0   0   0   0   0   0   0   0   0   0   0   0   0   0   0   0   0   0   0   0   0   0   0   0   0   0   0   0   0   0   5 90 88 78 77 76 
  10   0   0   0   0   0   0   0   0   0   0   3   0   0   0   0   0   0   0   0   0   0   0   0   0   0   0   0   0   0   6   4 81 80 78 70 
   1   0   0   0   0   0   0   0   0   0   0   0   0  10   0   0   0   0   0   0   0   0   0   0   7   0   0   0   0  10   6   4 83 80 76 71 
  10   0   0   0   0   0   0   0   0   0   0   5   5   0   0   0   7  10   0   0   0   0   8   0   0   0   0   0   0   0   0   4 86 83 82 76 
   6   0   0   0   0   0   0   0   0   0   0   0   0   0   0   0   0   0   0   7   7   0   0   0   0   0   0   0   0   0   0   4 84 78 77 76 
   8   0   0   0   0   0   0   0   0   0   0   0   0   0   0   0   0   0   0   4   0   0   0   0   0   0   0   0   5   0   0   4 89 84 80 77 
   1   0   6   0   0   0   0   0   0   0   0   0   0   2   3   0   0   7   0   6   0   0   0   0   7   4   0   0   0   0   8   4 85 83 79 76 
   6   0   0   0   9   0   0   0   0   0   5  10   0   0   0   0   0   0   0   0   0   0   0   0   0   0   0   6   0   0   8   3 85 81 80 
   5   0   0   0   0   0   0   0   0   0   0   0   0   0   0   0   0   0   9   0   0   0   0   0   0   0   7   0   0   0   0   3 81 78 76 
  10   0   0   0   0   6   0   0   7   0   0   0   0   0   0   0   0   0   0   0   4   0   0   0   0   0  10   0   0   0   0   3 85 80 77 
   6   0   0   0   0   0   0   0   0   0   0   0   5   0   9   0   0   0   0   0   0   0   0   0   0   0   9   0   0   0   0   2 79 76 
   3   0   0   0   3   0   8   0   0   0   0   0   0   0   7   0   0   0   8   0  10   0   0   0   0   6   0   0   0   0   0   2 77 76 
  10   0   0   0   0   0   0   0   7   0   0   0   8   0   0   0   0   4   0   0   0   3   0   0   0   0   0  10   0   0   0   2 77 76 
   2   0   0   0   0   0   0   0   0   0   0   0   0   0   0   0   0   0   0   0   9   0   0   0   0   0   0   6   0   0   0   2 86 76 
   7   0   0   0   0   6   0   0   0   0   0   0   0   0   0   0   0   0   0   7   0   0   0   0   0   0   0   0   0   0   4   2 92 84 
   3   0   5   0   0   0   0   0   0   0   0   0   0   0   5   8   0   0   0   0   0   0   0   0   0   6   0   0   0   0   0   1 70 
  10   0   7   0   0   0   0   0   0   0   0   0   0   6   0   0   0   0   0   0   0   0   0   0   0   0   0   0   0   0   5   1 76 
   3   0   0   0   0   0   0   0   0   0   0   0   0   0   0   0   6   0   0   0   0   0   0   0   0   0   0   0   0   0   0   1 84 
   9   0   0   0   0   0   0   0   0   0   0   0   7   0   0   0   0   0   0   5   0   0   0   0   8   0   5   0   0   0   0   1 77 
  10   0   0   0   0   0   0   0   0   0   0   0   0   0   0   0   0   0   0   0   0   0   0   0   0   0   0   0   3   0   5   1 83 
   5   0   0   0   0   0   4   0   0   0   0   0   9   0   0   0   7   2   0   0   0   0   0   0   0   0   0   0   0   0   0   1 79 
   9   0   5   0   0   0   0   0   0   0   0   0   0   0   0   5   0   0   0   0   0   0   0   0   6   0   0   0   0   0   0   1 81 
   5   0   0   0   0   0   9   0   0   0  10   7   0   6   0   0   0   0   0  10   0  10   9   0   0   0   0   0   0   0   0   1 102
   4   0   0   5   0   0   0   0   8   0   0   0   7   0   0   0  10   0   0   0   0   0   0   0   0   0   0   0   0   0   7   1 102
   5   3   9   0   0   8   0   0   0   0   0   6   0   0   0   0   0   0   0   0   0   6   0   0   0   0   6   0  10   0   0   1 102
   8   0   0   0   0   9   6   4   0   0   0   0   8   0   0   0   8   0   0   0   0   0   0   0   0   4   0   0   7   0   0   1 102
   8   0   0   0   0   0   0   0   7   0   0   0   0   5   0   0   0   0   0   0   0   0   0   0   0   5   0   0   0   0   3   1 102
   1   0   0   0   0   3   0   0   0   0   0   0   0   8   0   0   0   0   7   5   0   0   0   0   0   0   0   0   5   0   0   1 102
  10   0   0   0   0   0   0   0   0   0   0   0   0   0   0   0   0   0   0   0   0   0   0   0   0   0   0   0   0   0   0   1 102
   1   0   8   0   8   0   0   9   0   0   5   0   0   0   0   1   0   0   0   0   0   0   6   0   0   0   0   5   0   0   0   1 102
   2   0   0   0   0   0   0   6   0   0   0   0   0   0   0   0   0   0   0   0   4   0   0   0   0   0   0   0   0   0   0   1 102
   9   0   3   5   0   0   9   0   0   0   0   2   0   0   5   0   0   0   0   0   0   0   0   0   0   0   0   0   0   0   0   1 102
   5   0   0   0   0   0   0   0   0   0   0   0   0   0   0   0   6   0   0   0   0   0   0   0   0   0   0   0   0   3   0   1 102
   3   0   0   0   0   0   0   0   0   0   0   0   0   0   0  10   0   0   0   0   0   0   0   0   0   0   0   0   0   0   0   1 102
   2   0   0   0   0   0   0   0   0   0   0   0   0   0   0   0   0   0   0   0   0   0   0   0   0   0   0   0   0   0   0   1 102
   4   0   0   0   0   0   0   0   0   0   0   0   0   0   0   0   0   0   0   0   0   0   0   0   0   0   0   0   0   0   0   1 102
   4   0   0   0   0   8   0   0   0   0   7   0   0   0   0   0   0  10   0   0   0   0   0   5   0   0   0   3  10   0   0   1 102
   6   0   0   0   0   0   0   0   0   0   6   0   0  10   9   0   0   0   0   0   0   0   0   0   0   0   6   5   4   0   0   1 102
   1   0   0   0   0   6   0   0   0   0   0   0   0   0   0   0   2   0   0   0   0   0   0   0   0   6   0   0   0   0   0   1 102
   1   0   7   0   0   5   0   0   0   0   0   0   9   0   0   0   0   0   0   0   0   0   0   0   0   7   0   0   6   0   0   1 102
   2   0   0   0   0   0   0   5   0   0   0   0   0   0   0   0   0   0   0   0   0   0   0   0   0   0   0   2   0   0   0   1 102
   2   0   0   0   5   0   0   0   0   0   9   0   0   0   0   0   0   0  10   0   5   0   0   7   0   0   0   0   6   7   8   1 102
   8   0   0   0   0   0   9   0   0   0   0   3   0   0   0   5   0   0   0   0   0   8   0   0   0  10   0   0   0   6   0   1 102
  10   0   0   6   0   0   0   0   7   0   0   0   0   0   0   0   0  10   0  10   0   5   0   4   0   0   0   0   0   0   0   1 102
   5   0   0   0   0   7   0   0   0   0   0   0   0   0   0   0   0   0   0   0   0   0   0   0   0   0   0   0   0   0   0   1 102
   9   0   0   0   0   2   0   0   0   0   0   0   0   0   0   0   0   0   0   0   9   9   0   7   0   0   0   0   0   0   0   1 102
   3   0   0   0   7   7   0   0   0   0   0   0   6   0   0   0   0   0   0   0   0   0   0   0   0   0   0   0   0   0   0   1 102
   7   0   0   0   0   4   0   0   0   0   0   0   0   0   0   0   0   0   0   0   0   0   0   8   0   0   0   0   0   0   0   1 102
   0   0   0   0   0   0   0   0   0   0   0   0   0   0   0   0   0   0   0   0   0   0   0   0   0   0   0   0   0   0   0   0 
